WARNING: for repeatability, setting FPU to use double precision
============================[ Problem Statistics ]=============================
|                                                                             |
|  Number of variables:           862                                         |
|  Number of clauses:          855716                                         |
|  Parse time:                   0.58 s                                       |
|                                                                             |
c ============================[ Search Statistics ]==============================
c | Conflicts |          ORIGINAL         |          LEARNT          | Progress |
c |           |    Vars  Clauses Literals |    Limit  Clauses Lit/Cl |          |
c ===============================================================================
c Switched to VSIDS.
c ===============================================================================
restarts                  : 1972
conflicts                 : 1232723        (5238 /sec)
decisions                 : 33289447       (0.00 % random) (141457 /sec)
propagations              : 40681758       (172869 /sec)
conflict literals         : 15218446       (0.67 % deleted)

conflicts w/ DIP found    : 40051          (3.25 % of conflicts)
conflicts w/ dangerous DIP: 0              (0.00 % of conflicts)
conflicts w/ DIP-learning : 0              (0.00 % of conflicts)
decisions on ext vars     : 0              (0.00 % of decisions)
total ext vars            : 0           
tried delete ext vars     : 0           
deleted ext vars          : 0           
max ext vars              : 0           

Memory used               : 234.00 MB
CPU time                  : 235.333 s
DIP computation time      : 3.32427 s (1.41 % of total time)
ER_sel time               : 0.994084 s
ER_add time               : 0 s
ER_delC time              : 0 s
ER_delV time              : 0 s
ER_sub time               : 1.04868 s
ER_stat time              : 0 s

SATISFIABLE
